# FREQUENCY A
# Mon May 12 13:13:23 2003
# Measuring time: 10 ms                       Single: Off
# Input A: Auto, 1Mê, AC, X1, Pos             Filter: Off
# Input B: Auto, 1Mê, AC, X1, Pos             Common: Off
# Ext.arm: Off                                Ref.osc: Internal
# Hold off: Off                               Statistics: Off
3 5
4 6
5 5
6 4
7 3
8 2
9 1
10 5
11 6
12 5
13 4
14 3
15 2
16 1